50	519684

6787 6787
7885 7885
625 625
9000 9000
2631 2631
990 990
1778 1778
3194 3194
6271 6271
9483 9483
8161 8161
9952 9952
874 874
5689 5689
6234 6234
4940 4940
6560 6560
1352 1352
438 438
9526 9526
8971 8971
3075 3075
4005 4005
8515 8515
275 275
4279 4279
7232 7232
397 397
7133 7133
463 463
8492 8492
532 532
4219 4219
4320 4320
3734 3734
8449 8449
8663 8663
8641 8641
1958 1958
3327 3327
8962 8962
5894 5894
9794 9794
9728 9728
4308 4308
2371 2371
3839 3839
4175 4175
4799 4799
6922 6922
